20
2 0 1
2 1 3
3 2 9
4 1 4
4 3 2
5 0 6
5 1 10
5 3 7
6 2 7
6 3 6
7 0 9
8 0 8
8 2 4
8 3 10
8 4 8
8 5 2
9 0 5
9 2 10
9 3 3
9 5 1
9 8 4
10 1 1
10 2 10
10 6 10
10 8 5
10 9 8
11 2 7
11 3 7
11 5 2
11 7 9
11 9 6
11 10 1
12 1 3
12 2 8
12 3 9
12 4 1
12 7 4
12 8 9
13 0 8
13 3 1
13 6 10
13 8 4
13 9 4
13 12 6
14 0 8
14 1 3
14 3 3
14 5 7
14 6 7
14 7 1
14 8 3
14 11 2
15 0 7
15 1 10
15 5 10
15 6 10
15 7 6
15 9 8
15 10 4
15 12 4
15 14 4
16 0 2
16 8 2
16 9 10
16 15 6
17 6 3
17 12 2
18 2 7
18 4 6
18 5 4
18 10 2
18 11 1
18 13 8
18 17 3
19 0 10
19 1 6
19 4 10
19 7 4
19 9 6
19 10 8
19 11 10
19 13 6
19 17 4
